
Gurobi 9.0.2 (linux64) logging started Thu Jun  4 21:20:14 2020

Changed value of parameter LogFile to gurobi_logs/2020-06-04_21:20:14-rproblem4_implicit_mode=optimality_no_sdp.log
   Prev:   Default: 
Parameter MIPFocus unchanged
   Value: 0  Min: 0  Max: 3  Default: 0
Parameter SolutionLimit unchanged
   Value: 2000000000  Min: 1  Max: 2000000000  Default: 2000000000
Parameter LogToConsole unchanged
   Value: 1  Min: 0  Max: 1  Default: 1
Changed value of parameter TimeLimit to 18000.0
   Prev: inf  Min: 0.0  Max: inf  Default: inf
Gurobi Optimizer version 9.0.2 build v9.0.2rc0 (linux64)
Optimize a model with 5284 rows, 3390 columns and 32114 nonzeros
Model fingerprint: 0xf10cf163
Variable types: 26 continuous, 3364 integer (2608 binary)
Coefficient statistics:
  Matrix range     [2e-02, 1e+02]
  Objective range  [2e-01, 1e+00]
  Bounds range     [1e+00, 1e+00]
  RHS range        [1e+00, 1e+02]
Presolve removed 4846 rows and 2909 columns
Presolve time: 0.03s
Presolved: 438 rows, 481 columns, 2811 nonzeros
Variable types: 1 continuous, 480 integer (472 binary)
Found heuristic solution: objective 58.0264320

Root relaxation: objective 1.723346e+02, 311 iterations, 0.01 seconds

    Nodes    |    Current Node    |     Objective Bounds      |     Work
 Expl Unexpl |  Obj  Depth IntInf | Incumbent    BestBd   Gap | It/Node Time

     0     0  172.33461    0   63   58.02643  172.33461   197%     -    0s
H    0     0                      95.0942682  172.33461  81.2%     -    0s
H    0     0                     100.1880488  172.33461  72.0%     -    0s
H    0     0                     136.7291546  172.33461  26.0%     -    0s
     0     0  167.43951    0   94  136.72915  167.43951  22.5%     -    0s
H    0     0                     142.3093629  167.43951  17.7%     -    0s
     0     0  159.42704    0   94  142.30936  159.42704  12.0%     -    0s
H    0     0                     144.5269553  159.42704  10.3%     -    0s
     0     0  158.45527    0   98  144.52696  158.45527  9.64%     -    0s
     0     0  158.45090    0  107  144.52696  158.45090  9.63%     -    0s
H    0     0                     152.9623546  158.45090  3.59%     -    0s
     0     0  157.01037    0   71  152.96235  157.01037  2.65%     -    0s
     0     0  157.01037    0   45  152.96235  157.01037  2.65%     -    0s
H    0     0                     155.0190465  157.01037  1.28%     -    0s
     0     0  156.30639    0   97  155.01905  156.30639  0.83%     -    0s
H    0     0                     155.2005980  156.30639  0.71%     -    0s
     0     0  156.16062    0   76  155.20060  156.16062  0.62%     -    0s
     0     0  156.14299    0   90  155.20060  156.14299  0.61%     -    0s
     0     0  156.12709    0  100  155.20060  156.12709  0.60%     -    0s
     0     0  156.07869    0  100  155.20060  156.07869  0.57%     -    0s
     0     0  156.07869    0   43  155.20060  156.07869  0.57%     -    0s
     0     0  156.07869    0   79  155.20060  156.07869  0.57%     -    0s
     0     0  156.07869    0   81  155.20060  156.07869  0.57%     -    0s
     0     0  156.07869    0   78  155.20060  156.07869  0.57%     -    0s
     0     0  156.07869    0   79  155.20060  156.07869  0.57%     -    0s
     0     0  156.07869    0   78  155.20060  156.07869  0.57%     -    0s
     0     0  156.07869    0   78  155.20060  156.07869  0.57%     -    0s
H    0     0                     155.2005994  156.07869  0.57%     -    0s
     0     0  156.07869    0   77  155.20060  156.07869  0.57%     -    0s
     0     2  156.07869    0   77  155.20060  156.07869  0.57%     -    0s

Cutting planes:
  Gomory: 24
  Clique: 1
  MIR: 14
  RLT: 2

Explored 481 nodes (7547 simplex iterations) in 0.79 seconds
Thread count was 24 (of 48 available processors)

Solution count 10: 155.201 155.201 155.019 ... 58.0264

Optimal solution found (tolerance 1.00e-04)
Warning: max constraint violation (1.7704e-06) exceeds tolerance
Best objective 1.552005994391e+02, best bound 1.552005994391e+02, gap 0.0000%
